block_table_value:
[[1 1 1 1 1 1 0 0]
 [1 1 1 1 1 1 0 0]
 [1 1 1 1 1 1 1 1]
 [1 1 1 1 1 1 1 1]
 [1 1 1 1 1 1 1 1]
 [1 1 1 1 1 1 1 1]
 [0 0 1 1 1 1 1 1]
 [0 0 1 1 1 1 1 1]]
Set parameter Username
Set parameter LicenseID to value 2603695
Academic license - for non-commercial use only - expires 2025-12-26
Gurobi Optimizer version 11.0.3 build v11.0.3rc0 (linux64 - "Debian GNU/Linux 12 (bookworm)")

CPU model: Intel(R) Xeon(R) Gold 6252 CPU @ 2.10GHz, instruction set [SSE2|AVX|AVX2|AVX512]
Thread count: 48 physical cores, 96 logical processors, using up to 32 threads

Optimize a model with 888 rows, 561 columns and 2656 nonzeros
Model fingerprint: 0x567a7f9e
Variable types: 0 continuous, 561 integer (384 binary)
Coefficient statistics:
  Matrix range     [1e+00, 2e+00]
  Objective range  [1e+00, 1e+00]
  Bounds range     [1e+00, 1e+00]
  RHS range        [1e+00, 6e+00]
Presolve removed 128 rows and 48 columns
Presolve time: 0.01s
Presolved: 760 rows, 513 columns, 2400 nonzeros
Variable types: 0 continuous, 513 integer (496 binary)
Found heuristic solution: objective 16.0000000
Found heuristic solution: objective 15.0000000
Found heuristic solution: objective 14.0000000

Root relaxation: objective 3.500000e+00, 916 iterations, 0.03 seconds (0.02 work units)

    Nodes    |    Current Node    |     Objective Bounds      |     Work
 Expl Unexpl |  Obj  Depth IntInf | Incumbent    BestBd   Gap | It/Node Time

     0     0    3.50000    0  513   14.00000    3.50000  75.0%     -    0s
H    0     0                      13.0000000    3.50000  73.1%     -    0s
H    0     0                      12.0000000    3.50000  70.8%     -    0s
H    0     0                      11.0000000    4.00000  63.6%     -    0s
     0     0    5.00000    0  404   11.00000    5.00000  54.5%     -    0s
     0     0    5.00000    0  402   11.00000    5.00000  54.5%     -    0s
     0     0    5.00000    0  422   11.00000    5.00000  54.5%     -    0s
     0     0    5.00000    0  425   11.00000    5.00000  54.5%     -    0s
     0     0    5.14286    0  459   11.00000    5.14286  53.2%     -    0s
     0     0    6.00000    0  292   11.00000    6.00000  45.5%     -    0s
     0     0    6.00000    0  292   11.00000    6.00000  45.5%     -    0s
H    0     0                      10.0000000    6.00000  40.0%     -    1s
     0     2    6.00000    0  292   10.00000    6.00000  40.0%     -    1s
H  109    89                       9.0000000    6.00000  33.3%   392    3s
   173   140    6.00000    9  284    9.00000    6.00000  33.3%   346    5s
H  174   140                       8.0000000    6.00000  25.0%   344    5s
  4270  1459    7.00000   25  233    8.00000    6.00000  25.0%   158   13s
  7652  1913    7.00000   37  206    8.00000    6.00000  25.0%   140   15s
  8547  2027    7.00000   15  324    8.00000    6.00000  25.0%   138   20s
  8645  2096    7.00000   21  231    8.00000    6.00000  25.0%   6.6   25s
  9373  1997    7.00000   22  210    8.00000    7.00000  12.5%  24.1   30s
 11032  1476    7.00000   30  269    8.00000    7.00000  12.5%  56.8   35s
 14019   507    7.00000   25  228    8.00000    7.00000  12.5%   100   40s
 21462   330 infeasible   29         8.00000    7.00000  12.5%   165   45s
 27405   303    7.00000   30  227    8.00000    7.00000  12.5%   198   50s
 33779   251 infeasible   35         8.00000    7.00000  12.5%   217   55s
 37363    68    7.00000   28  241    8.00000    7.00000  12.5%   229   60s
 40301    98    7.00000   31  236    8.00000    7.00000  12.5%   234   65s

Cutting planes:
  Gomory: 1
  Cover: 670
  MIR: 62
  Flow cover: 239
  Inf proof: 213
  Zero half: 181
  RLT: 284

Explored 42475 nodes (11283781 simplex iterations) in 68.85 seconds (93.61 work units)
Thread count was 32 (of 96 available processors)

Solution count 9: 8 9 10 ... 16

Optimal solution found (tolerance 1.00e-04)
Best objective 8.000000000000e+00, best bound 8.000000000000e+00, gap 0.0000%
LP solve time: 68.84967231750488 s
Optimal value: 8.0
LP result:
x_0_1_0: 0.0
x_0_1_1: 0.0
x_0_1_2: 1.0
x_0_1_3: 0.0
x_0_1_4: 0.0
x_0_1_5: 0.0
x_0_1_6: 0.0
x_0_1_7: 0.0
x_0_2_0: 0.0
x_0_2_1: 0.0
x_0_2_2: 1.0
x_0_2_3: 0.0
x_0_2_4: 0.0
x_0_2_5: 0.0
x_0_2_6: 0.0
x_0_2_7: 0.0
x_0_3_0: 1.0
x_0_3_1: 0.0
x_0_3_2: 0.0
x_0_3_3: 0.0
x_0_3_4: 0.0
x_0_3_5: 0.0
x_0_3_6: 0.0
x_0_3_7: 0.0
x_0_4_0: 0.0
x_0_4_1: 0.0
x_0_4_2: 1.0
x_0_4_3: 0.0
x_0_4_4: 0.0
x_0_4_5: 0.0
x_0_4_6: 0.0
x_0_4_7: 0.0
x_0_5_0: 0.0
x_0_5_1: 0.0
x_0_5_2: 0.0
x_0_5_3: 0.0
x_0_5_4: 0.0
x_0_5_5: 0.0
x_0_5_6: 1.0
x_0_5_7: 0.0
x_1_0_0: 1.0
x_1_0_1: 0.0
x_1_0_2: 0.0
x_1_0_3: 0.0
x_1_0_4: 0.0
x_1_0_5: 0.0
x_1_0_6: 0.0
x_1_0_7: 0.0
x_1_2_0: 0.0
x_1_2_1: 0.0
x_1_2_2: 0.0
x_1_2_3: 0.0
x_1_2_4: 1.0
x_1_2_5: 0.0
x_1_2_6: 0.0
x_1_2_7: 0.0
x_1_3_0: 1.0
x_1_3_1: 0.0
x_1_3_2: 0.0
x_1_3_3: 0.0
x_1_3_4: 0.0
x_1_3_5: 0.0
x_1_3_6: 0.0
x_1_3_7: 0.0
x_1_4_0: 0.0
x_1_4_1: 0.0
x_1_4_2: 0.0
x_1_4_3: 0.0
x_1_4_4: 1.0
x_1_4_5: 0.0
x_1_4_6: 0.0
x_1_4_7: 0.0
x_1_5_0: 0.0
x_1_5_1: 1.0
x_1_5_2: 0.0
x_1_5_3: 0.0
x_1_5_4: 0.0
x_1_5_5: 0.0
x_1_5_6: 0.0
x_1_5_7: 0.0
x_2_0_0: 1.0
x_2_0_1: 0.0
x_2_0_2: 0.0
x_2_0_3: 0.0
x_2_0_4: 0.0
x_2_0_5: 0.0
x_2_0_6: 0.0
x_2_0_7: 0.0
x_2_1_0: 0.0
x_2_1_1: 1.0
x_2_1_2: 0.0
x_2_1_3: 0.0
x_2_1_4: 0.0
x_2_1_5: 0.0
x_2_1_6: 0.0
x_2_1_7: 0.0
x_2_3_0: 1.0
x_2_3_1: 0.0
x_2_3_2: 0.0
x_2_3_3: 0.0
x_2_3_4: 0.0
x_2_3_5: 0.0
x_2_3_6: 0.0
x_2_3_7: 0.0
x_2_4_0: 0.0
x_2_4_1: 0.0
x_2_4_2: 1.0
x_2_4_3: 0.0
x_2_4_4: 0.0
x_2_4_5: 0.0
x_2_4_6: 0.0
x_2_4_7: 0.0
x_2_5_0: 0.0
x_2_5_1: 1.0
x_2_5_2: 0.0
x_2_5_3: 0.0
x_2_5_4: 0.0
x_2_5_5: 0.0
x_2_5_6: 0.0
x_2_5_7: 0.0
x_2_6_0: 0.0
x_2_6_1: 1.0
x_2_6_2: 0.0
x_2_6_3: 0.0
x_2_6_4: 0.0
x_2_6_5: 0.0
x_2_6_6: 0.0
x_2_6_7: 0.0
x_2_7_0: 1.0
x_2_7_1: 0.0
x_2_7_2: 0.0
x_2_7_3: 0.0
x_2_7_4: 0.0
x_2_7_5: 0.0
x_2_7_6: 0.0
x_2_7_7: 0.0
x_3_0_0: 0.0
x_3_0_1: 0.0
x_3_0_2: 0.0
x_3_0_3: 1.0
x_3_0_4: 0.0
x_3_0_5: 0.0
x_3_0_6: 0.0
x_3_0_7: 0.0
x_3_1_0: 0.0
x_3_1_1: 0.0
x_3_1_2: 1.0
x_3_1_3: 0.0
x_3_1_4: 0.0
x_3_1_5: 0.0
x_3_1_6: 0.0
x_3_1_7: 0.0
x_3_2_0: 0.0
x_3_2_1: 0.0
x_3_2_2: 1.0
x_3_2_3: 0.0
x_3_2_4: 0.0
x_3_2_5: 0.0
x_3_2_6: 0.0
x_3_2_7: 0.0
x_3_4_0: 0.0
x_3_4_1: 0.0
x_3_4_2: 0.0
x_3_4_3: 1.0
x_3_4_4: 0.0
x_3_4_5: 0.0
x_3_4_6: 0.0
x_3_4_7: 0.0
x_3_5_0: 0.0
x_3_5_1: 0.0
x_3_5_2: 0.0
x_3_5_3: 0.0
x_3_5_4: 0.0
x_3_5_5: 0.0
x_3_5_6: 1.0
x_3_5_7: 0.0
x_3_6_0: 0.0
x_3_6_1: 0.0
x_3_6_2: 0.0
x_3_6_3: 0.0
x_3_6_4: 0.0
x_3_6_5: 0.0
x_3_6_6: 1.0
x_3_6_7: 0.0
x_3_7_0: 0.0
x_3_7_1: 0.0
x_3_7_2: 0.0
x_3_7_3: 0.0
x_3_7_4: 0.0
x_3_7_5: 0.0
x_3_7_6: 1.0
x_3_7_7: 0.0
x_4_0_0: 0.0
x_4_0_1: 0.0
x_4_0_2: 0.0
x_4_0_3: 0.0
x_4_0_4: 0.0
x_4_0_5: 0.0
x_4_0_6: 0.0
x_4_0_7: 1.0
x_4_1_0: 0.0
x_4_1_1: 0.0
x_4_1_2: 0.0
x_4_1_3: 0.0
x_4_1_4: 1.0
x_4_1_5: 0.0
x_4_1_6: 0.0
x_4_1_7: 0.0
x_4_2_0: 0.0
x_4_2_1: 0.0
x_4_2_2: 0.0
x_4_2_3: 0.0
x_4_2_4: 1.0
x_4_2_5: 0.0
x_4_2_6: 0.0
x_4_2_7: 0.0
x_4_3_0: 0.0
x_4_3_1: 0.0
x_4_3_2: 0.0
x_4_3_3: 0.0
x_4_3_4: 0.0
x_4_3_5: 0.0
x_4_3_6: 0.0
x_4_3_7: 1.0
x_4_5_0: 0.0
x_4_5_1: 1.0
x_4_5_2: 0.0
x_4_5_3: 0.0
x_4_5_4: 0.0
x_4_5_5: 0.0
x_4_5_6: 0.0
x_4_5_7: 0.0
x_4_6_0: 0.0
x_4_6_1: 1.0
x_4_6_2: 0.0
x_4_6_3: 0.0
x_4_6_4: 0.0
x_4_6_5: 0.0
x_4_6_6: 0.0
x_4_6_7: 0.0
x_4_7_0: 0.0
x_4_7_1: 0.0
x_4_7_2: 0.0
x_4_7_3: 0.0
x_4_7_4: 0.0
x_4_7_5: 0.0
x_4_7_6: 0.0
x_4_7_7: 1.0
x_5_0_0: 0.0
x_5_0_1: 0.0
x_5_0_2: 0.0
x_5_0_3: 0.0
x_5_0_4: 0.0
x_5_0_5: 0.0
x_5_0_6: 0.0
x_5_0_7: 1.0
x_5_1_0: 0.0
x_5_1_1: 0.0
x_5_1_2: 0.0
x_5_1_3: 0.0
x_5_1_4: 1.0
x_5_1_5: 0.0
x_5_1_6: 0.0
x_5_1_7: 0.0
x_5_2_0: 0.0
x_5_2_1: 0.0
x_5_2_2: 0.0
x_5_2_3: 0.0
x_5_2_4: 0.0
x_5_2_5: 1.0
x_5_2_6: 0.0
x_5_2_7: 0.0
x_5_3_0: 0.0
x_5_3_1: 0.0
x_5_3_2: 0.0
x_5_3_3: 0.0
x_5_3_4: 0.0
x_5_3_5: 0.0
x_5_3_6: 0.0
x_5_3_7: 1.0
x_5_4_0: 0.0
x_5_4_1: 0.0
x_5_4_2: 0.0
x_5_4_3: 0.0
x_5_4_4: 1.0
x_5_4_5: 0.0
x_5_4_6: 0.0
x_5_4_7: 0.0
x_5_6_0: 0.0
x_5_6_1: 0.0
x_5_6_2: 0.0
x_5_6_3: 0.0
x_5_6_4: 0.0
x_5_6_5: 1.0
x_5_6_6: 0.0
x_5_6_7: 0.0
x_5_7_0: 0.0
x_5_7_1: 0.0
x_5_7_2: 0.0
x_5_7_3: 0.0
x_5_7_4: 0.0
x_5_7_5: 0.0
x_5_7_6: 0.0
x_5_7_7: 1.0
x_6_2_0: 0.0
x_6_2_1: 0.0
x_6_2_2: 0.0
x_6_2_3: 0.0
x_6_2_4: 0.0
x_6_2_5: 1.0
x_6_2_6: 0.0
x_6_2_7: 0.0
x_6_3_0: 0.0
x_6_3_1: 0.0
x_6_3_2: 0.0
x_6_3_3: 1.0
x_6_3_4: 0.0
x_6_3_5: 0.0
x_6_3_6: 0.0
x_6_3_7: 0.0
x_6_4_0: 0.0
x_6_4_1: 0.0
x_6_4_2: 0.0
x_6_4_3: 1.0
x_6_4_4: 0.0
x_6_4_5: 0.0
x_6_4_6: 0.0
x_6_4_7: 0.0
x_6_5_0: 0.0
x_6_5_1: 0.0
x_6_5_2: 0.0
x_6_5_3: 0.0
x_6_5_4: 0.0
x_6_5_5: 0.0
x_6_5_6: 1.0
x_6_5_7: 0.0
x_6_7_0: 0.0
x_6_7_1: 0.0
x_6_7_2: 0.0
x_6_7_3: 0.0
x_6_7_4: 0.0
x_6_7_5: 0.0
x_6_7_6: 1.0
x_6_7_7: 0.0
x_7_2_0: 0.0
x_7_2_1: 0.0
x_7_2_2: 0.0
x_7_2_3: 0.0
x_7_2_4: 0.0
x_7_2_5: 1.0
x_7_2_6: 0.0
x_7_2_7: 0.0
x_7_3_0: 0.0
x_7_3_1: 0.0
x_7_3_2: 0.0
x_7_3_3: 1.0
x_7_3_4: 0.0
x_7_3_5: 0.0
x_7_3_6: 0.0
x_7_3_7: 0.0
x_7_4_0: 0.0
x_7_4_1: 0.0
x_7_4_2: 0.0
x_7_4_3: 1.0
x_7_4_4: 0.0
x_7_4_5: 0.0
x_7_4_6: 0.0
x_7_4_7: 0.0
x_7_5_0: 0.0
x_7_5_1: 0.0
x_7_5_2: 0.0
x_7_5_3: 0.0
x_7_5_4: 0.0
x_7_5_5: 1.0
x_7_5_6: 0.0
x_7_5_7: 0.0
x_7_6_0: 0.0
x_7_6_1: 0.0
x_7_6_2: 0.0
x_7_6_3: 0.0
x_7_6_4: 0.0
x_7_6_5: 1.0
x_7_6_6: 0.0
x_7_6_7: 0.0
a_0_0: 1.0
a_0_1: 1.0
a_0_2: 1.0
a_0_3: 0.0
a_0_4: 0.0
a_0_5: 0.0
a_0_6: 0.0
a_0_7: 0.0
a_1_0: 0.0
a_1_1: 1.0
a_1_2: 1.0
a_1_3: 0.0
a_1_4: 1.0
a_1_5: 0.0
a_1_6: 0.0
a_1_7: 0.0
a_2_0: 1.0
a_2_1: 0.0
a_2_2: 1.0
a_2_3: 1.0
a_2_4: 0.0
a_2_5: 0.0
a_2_6: 0.0
a_2_7: 0.0
a_3_0: 0.0
a_3_1: 0.0
a_3_2: 0.0
a_3_3: 1.0
a_3_4: 0.0
a_3_5: 0.0
a_3_6: 1.0
a_3_7: 1.0
a_4_0: 0.0
a_4_1: 1.0
a_4_2: 0.0
a_4_3: 0.0
a_4_4: 1.0
a_4_5: 1.0
a_4_6: 0.0
a_4_7: 0.0
a_5_0: 0.0
a_5_1: 0.0
a_5_2: 0.0
a_5_3: 0.0
a_5_4: 0.0
a_5_5: 1.0
a_5_6: 1.0
a_5_7: 1.0
a_6_0: 1.0
a_6_1: 0.0
a_6_2: 0.0
a_6_3: 1.0
a_6_4: 0.0
a_6_5: 0.0
a_6_6: 1.0
a_6_7: 0.0
a_7_0: 0.0
a_7_1: 0.0
a_7_2: 0.0
a_7_3: 0.0
a_7_4: 1.0
a_7_5: 1.0
a_7_6: 0.0
a_7_7: 1.0
b_0_0: 1.0
b_0_1: 0.0
b_0_2: 0.0
b_0_3: 1.0
b_0_4: 0.0
b_0_5: 0.0
b_0_6: 0.0
b_0_7: 1.0
b_1_0: 0.0
b_1_1: 1.0
b_1_2: 0.0
b_1_3: 0.0
b_1_4: 0.0
b_1_5: 1.0
b_1_6: 1.0
b_1_7: 0.0
b_2_0: 0.0
b_2_1: 1.0
b_2_2: 1.0
b_2_3: 0.0
b_2_4: 1.0
b_2_5: 0.0
b_2_6: 0.0
b_2_7: 0.0
b_3_0: 1.0
b_3_1: 0.0
b_3_2: 0.0
b_3_3: 1.0
b_3_4: 1.0
b_3_5: 0.0
b_3_6: 0.0
b_3_7: 0.0
b_4_0: 0.0
b_4_1: 1.0
b_4_2: 1.0
b_4_3: 0.0
b_4_4: 1.0
b_4_5: 0.0
b_4_6: 0.0
b_4_7: 0.0
b_5_0: 0.0
b_5_1: 0.0
b_5_2: 1.0
b_5_3: 0.0
b_5_4: 0.0
b_5_5: 1.0
b_5_6: 1.0
b_5_7: 0.0
b_6_0: 0.0
b_6_1: 0.0
b_6_2: 0.0
b_6_3: 0.0
b_6_4: 0.0
b_6_5: 1.0
b_6_6: 1.0
b_6_7: 1.0
b_7_0: 1.0
b_7_1: 0.0
b_7_2: 0.0
b_7_3: 1.0
b_7_4: 0.0
b_7_5: 0.0
b_7_6: 0.0
b_7_7: 1.0
A_0: 2.0
B_0: 2.0
C_0: 2.0
D_0: 2.0
Cin_0: 8.0
Cout_0: 8.0
A_1: 2.0
B_1: 2.0
C_1: 2.0
D_1: 2.0
Cin_1: 8.0
Cout_1: 8.0
A_2: 2.0
B_2: 2.0
C_2: 2.0
D_2: 2.0
Cin_2: 8.0
Cout_2: 8.0
A_3: 2.0
B_3: 2.0
C_3: 2.0
D_3: 2.0
Cin_3: 8.0
Cout_3: 8.0
A_4: 2.0
B_4: 2.0
C_4: 2.0
D_4: 2.0
Cin_4: 8.0
Cout_4: 8.0
A_5: 2.0
B_5: 2.0
C_5: 2.0
D_5: 2.0
Cin_5: 8.0
Cout_5: 8.0
A_6: 2.0
B_6: 2.0
C_6: 2.0
D_6: 2.0
Cin_6: 8.0
Cout_6: 8.0
A_7: 2.0
B_7: 2.0
C_7: 2.0
D_7: 2.0
Cin_7: 8.0
Cout_7: 8.0
Comm_Volume: 8.0
Allocation Matrix:
0  2  2  0  2  6  /  /  
0  1  4  0  4  1  /  /  
0  1  2  0  2  1  1  0  
3  2  2  3  3  6  6  6  
7  4  4  7  4  1  1  7  
7  4  5  7  4  5  5  7  
/  /  5  3  3  6  6  6  
/  /  5  3  3  5  5  7  
